(declare-fun ExpandObjSwitcher () Real)
(declare-fun Constructed_Argument_t () String)
(declare-fun CreateAsClass () Bool)
(declare-fun Constructed_Argument_2_t () String)
(assert (= ExpandObjSwitcher 3.0))
(assert (= Constructed_Argument_t "null"))
(assert (not CreateAsClass))
(assert (not (= Constructed_Argument_2_t "string")))
(assert (not (= Constructed_Argument_2_t "number")))
(assert (= Constructed_Argument_2_t "boolean"))
(check-sat)
